# 41345
param k := 6;
param n := 60;
param s := 1;
set E :=  (0,1) (0,17) (1,44) (1,58) (2,36) (3,7) (3,40) (3,42) (4,35) (4,36) (4,45) (4,53) (5,7) (5,9) (6,37) (7,42) (7,53) (8,16) (10,33) (10,55) (11,22) (12,15) (13,50) (13,59) (14,23) (14,33) (15,33) (16,19) (16,24) (17,57) (18,27) (19,30) (20,39) (21,22) (21,48) (22,30) (22,54) (22,56) (25,26) (26,34) (26,38) (27,46) (28,33) (28,39) (28,44) (29,41) (29,42) (29,43) (30,36) (30,38) (31,46) (32,38) (33,46) (34,53) (35,47) (37,40) (37,59) (42,51) (44,51) (46,54) (46,57) (49,52) (52,59);